6911
118,24,53,40,139,47,120,42,37,9,28,6,19,2,110,81,29,86,135,70,108,99,114,102,137,50,55,58,141,65,132,85,142,18,75,26,83,56,146,97,143,100,5,107,95,82,103,98,1,87,34,76,73,48,63,30,84,7,8,89,96,35,124,93,126,33,52,59,79,121,88,94,10,113,3,62,149,125,22,104,4,115,150,21,78,15,14,80,72,145,136,112,64,44,71,45,128,68,119,91,106,13,74,123,31,27,129,144,147,49,23,38,67,32,131,77,122,133,16,111,105,92,54,134,138,46,90,25,20,51,109,43,12,116,101,41,39,57,117,140,60,66,17,130,148,11,61,36,69,127,118
